p tw 988 1845
1 754
1 755
1 894
1 895
1 981
1 982
2 461
2 462
3 556
3 557
4 404
4 405
4 477
4 478
5 634
5 635
6 405
6 406
6 707
6 708
7 463
7 464
8 651
8 652
9 780
9 781
10 685
10 686
10 854
10 855
11 411
11 412
12 920
12 921
13 426
13 427
13 648
13 649
13 743
13 744
13 875
13 876
13 969
13 970
14 399
14 400
14 433
14 434
14 663
14 664
14 748
14 749
14 886
14 887
14 972
14 973
15 289
15 525
16 768
16 769
16 855
16 856
16 906
16 907
17 438
17 439
17 549
17 550
18 468
18 469
18 947
18 948
19 487
19 488
19 963
19 964
20 495
20 496
20 789
20 790
21 686
21 687
21 856
21 857
21 907
21 908
22 571
22 572
23 687
23 688
24 811
24 812
25 483
25 484
26 735
26 736
26 866
26 867
26 959
26 960
27 699
27 700
28 542
28 543
29 392
29 393
30 97
30 988
31 554
31 555
32 774
32 775
33 656
33 657
34 612
34 613
35 485
35 486
35 561
35 562
35 782
35 783
36 513
36 514
36 590
36 591
36 706
36 707
36 932
36 933
37 422
37 423
37 535
37 536
38 683
38 684
39 534
39 535
40 613
40 614
41 412
41 413
42 827
42 828
43 587
43 588
43 704
43 705
43 931
43 932
44 400
44 401
44 471
44 472
45 640
45 641
46 745
46 746
46 883
46 884
46 985
46 986
47 522
47 523
48 705
48 706
49 624
49 625
49 729
49 730
50 503
50 504
51 296
51 447
52 454
52 455
53 429
53 430
53 621
53 622
54 607
54 608
55 391
55 392
56 588
56 589
57 473
57 474
58 541
58 542
59 750
59 751
60 804
60 805
61 470
61 471
62 493
62 494
63 420
63 421
63 569
63 570
64 424
64 425
64 575
64 576
65 665
65 666
65 836
65 837
65 974
65 975
66 641
66 642
67 638
67 639
68 394
68 395
68 502
68 503
69 444
69 445
69 672
69 673
69 751
69 752
69 891
69 892
69 977
69 978
70 689
70 690
71 456
71 457
72 835
72 836
73 508
73 509
73 797
73 798
74 498
74 499
75 690
75 691
76 551
76 552
77 684
77 685
77 853
77 854
77 905
77 906
78 616
78 617
79 633
79 634
80 670
80 671
81 812
81 813
82 146
82 518
82 755
82 756
83 482
83 483
83 778
83 779
84 781
84 782
85 510
85 511
86 528
86 529
86 680
86 681
86 898
86 899
87 611
87 612
88 787
88 788
88 871
88 872
88 922
88 923
89 480
89 481
90 644
90 645
91 459
91 460
91 766
91 767
92 469
92 470
93 910
93 911
94 841
94 842
95 625
95 626
96 839
96 840
97 988
98 734
98 735
99 776
99 777
100 662
100 663
101 608
101 609
102 803
102 804
103 603
103 604
104 790
104 791
104 874
104 875
105 406
105 407
105 986
105 987
106 799
106 800
107 677
107 678
108 488
108 489
108 964
108 965
109 489
109 490
110 675
110 676
111 631
111 632
111 819
111 820
111 954
111 955
112 718
112 719
113 650
113 651
114 393
114 394
114 580
114 581
114 792
114 793
115 666
115 667
116 691
116 692
117 501
117 502
117 653
117 654
118 800
118 801
119 398
119 399
119 431
119 432
119 769
119 770
120 813
120 814
120 852
120 853
120 987
120 988
121 524
121 525
122 628
122 629
123 834
123 835
124 741
124 742
124 873
124 874
124 967
124 968
125 409
125 410
126 579
126 580
127 478
127 479
128 595
128 596
129 532
129 533
130 816
130 817
131 773
131 774
131 912
131 913
132 458
132 459
132 615
132 616
133 520
133 521
134 726
134 727
134 859
134 860
134 948
134 949
135 462
135 463
135 814
135 815
136 703
136 704
136 887
136 888
136 930
136 931
137 548
137 549
138 761
138 762
139 376
139 377
140 521
140 522
141 378
141 379
142 499
142 500
142 578
142 579
143 379
143 380
143 451
143 452
143 810
143 811
143 940
143 941
144 407
144 408
144 515
144 516
144 596
144 597
144 807
144 808
144 934
144 935
145 387
145 388
145 497
145 498
146 181
146 287
146 292
146 413
146 518
146 678
146 756
146 757
146 896
146 982
146 983
147 403
147 404
147 514
147 515
147 591
147 592
147 802
147 803
147 933
147 934
148 798
148 799
148 888
148 889
148 929
148 930
149 418
149 419
149 637
149 638
150 416
150 417
150 530
150 531
151 437
151 438
151 669
151 670
152 496
152 497
152 830
152 831
153 630
153 631
154 557
154 558
155 600
155 601
156 386
156 387
157 642
157 643
158 446
158 447
158 674
158 675
159 390
159 391
159 500
159 501
159 652
159 653
160 435
160 436
161 815
161 816
161 950
161 951
162 442
162 443
162 671
162 672
163 479
163 480
164 601
164 602
164 714
164 715
165 402
165 403
165 511
165 512
165 837
165 838
165 889
165 890
166 763
166 764
166 847
166 848
166 902
166 903
167 733
167 734
168 546
168 547
168 772
168 773
169 764
169 765
169 849
169 850
169 904
169 905
170 620
170 621
171 924
171 925
172 425
172 426
173 828
173 829
174 445
174 446
174 553
174 554
175 739
175 740
176 547
176 548
177 614
177 615
178 719
178 720
179 976
179 977
180 635
180 636
181 287
181 758
181 759
181 896
181 983
182 728
182 729
183 657
183 658
184 711
184 712
185 757
185 758
186 829
186 830
187 397
187 398
187 507
187 508
187 795
187 796
187 881
187 882
188 788
188 789
189 434
189 435
190 602
190 603
191 564
191 565
192 410
192 411
192 516
192 517
193 536
193 537
194 676
194 677
195 428
195 429
195 460
195 461
195 617
195 618
196 664
196 665
197 576
197 577
198 560
198 561
199 384
199 385
200 622
200 623
201 692
201 693
201 861
201 862
201 911
201 912
202 777
202 778
203 586
203 587
204 809
204 810
204 939
204 940
205 721
205 722
205 944
205 945
206 821
206 822
206 862
206 863
206 955
206 956
207 563
207 564
207 694
207 695
207 916
207 917
208 722
208 723
208 851
208 852
209 559
209 560
210 679
210 680
210 843
210 844
210 897
210 898
211 636
211 637
212 649
212 650
212 831
212 832
213 506
213 507
213 794
213 795
214 558
214 559
215 725
215 726
215 946
215 947
216 639
216 640
217 659
217 660
218 430
218 431
218 584
218 585
218 701
218 702
218 882
218 883
218 927
218 928
219 401
219 402
220 597
220 598
220 710
220 711
220 892
220 893
220 935
220 936
221 415
221 416
222 423
222 424
223 720
223 721
223 850
223 851
223 943
223 944
224 486
224 487
224 915
224 916
225 375
225 376
226 421
226 422
226 609
226 610
227 537
227 538
228 791
228 792
228 877
228 878
228 925
228 926
229 439
229 440
229 629
229 630
229 953
229 954
230 504
230 505
231 765
231 766
232 682
232 683
232 846
232 847
232 900
232 901
233 452
233 453
233 901
233 902
234 538
234 539
234 767
234 768
235 583
235 584
236 695
236 696
236 870
236 871
236 918
236 919
237 464
237 465
238 965
238 966
239 474
239 475
240 544
240 545
241 565
241 566
242 730
242 731
243 661
243 662
244 681
244 682
244 845
244 846
244 899
244 900
245 396
245 397
245 467
245 468
246 540
246 541
247 698
247 699
247 872
247 873
247 923
247 924
248 414
248 415
249 593
249 594
250 753
250 754
250 893
250 894
250 979
250 980
251 380
251 381
252 832
252 833
253 450
253 451
254 619
254 620
254 723
254 724
254 945
254 946
255 550
255 551
256 395
256 396
256 466
256 467
257 519
257 520
257 759
257 760
258 457
258 458
259 577
259 578
260 667
260 668
260 749
260 750
260 890
260 891
260 975
260 976
261 441
261 442
262 417
262 418
262 562
262 563
262 783
262 784
262 917
262 918
263 779
263 780
263 868
263 869
263 914
263 915
264 700
264 701
264 878
264 879
264 926
264 927
265 702
265 703
265 884
265 885
266 668
266 669
267 937
267 938
268 822
268 823
268 864
268 865
268 957
268 958
269 523
269 524
270 443
270 444
270 552
270 553
270 775
270 776
271 660
271 661
272 592
272 593
272 805
272 806
273 476
273 477
274 512
274 513
275 627
275 628
275 732
275 733
276 455
276 456
277 717
277 718
278 582
278 583
279 465
279 466
279 724
279 725
280 737
280 738
281 353
281 842
282 573
282 574
283 961
283 962
284 432
284 433
284 658
284 659
285 655
285 656
286 383
286 384
286 492
286 493
286 643
286 644
286 740
286 741
286 966
286 967
287 298
287 678
287 840
287 983
288 826
288 827
289 525
290 539
290 540
290 770
290 771
290 857
290 858
290 908
290 909
291 626
291 627
292 413
293 708
293 709
294 618
294 619
295 389
295 390
296 447
297 604
297 605
297 715
297 716
297 938
297 939
298 840
298 895
298 896
298 980
298 981
299 688
299 689
299 858
299 859
299 909
299 910
300 440
300 441
301 509
301 510
301 747
301 748
302 610
302 611
303 448
303 449
303 529
303 530
303 760
303 761
303 844
303 845
304 517
304 518
304 598
304 599
305 382
305 383
305 490
305 491
305 784
305 785
306 696
306 697
307 388
307 389
308 574
308 575
309 505
309 506
310 585
310 586
311 623
311 624
311 727
311 728
311 949
311 950
312 419
312 420
313 785
313 786
314 823
314 824
314 865
314 866
314 958
314 959
315 599
315 600
315 713
315 714
316 594
316 595
317 567
317 568
318 817
318 818
318 860
318 861
318 951
318 952
319 808
319 809
320 427
320 428
321 903
321 904
322 555
322 556
323 712
323 713
323 936
323 937
324 825
324 826
324 869
324 870
324 962
324 963
325 566
325 567
325 919
325 920
326 606
326 607
327 589
327 590
328 744
328 745
328 880
328 881
328 984
328 985
329 646
329 647
330 484
330 485
330 738
330 739
331 716
331 717
331 848
331 849
331 942
331 943
332 806
332 807
333 838
333 839
334 581
334 582
335 971
335 972
336 374
336 375
336 481
336 482
336 736
336 737
337 941
337 942
338 472
338 473
338 818
338 819
339 793
339 794
340 771
340 772
341 820
341 821
341 863
341 864
342 824
342 825
342 867
342 868
342 960
342 961
343 796
343 797
343 885
343 886
343 928
343 929
344 673
344 674
344 752
344 753
344 978
344 979
345 645
345 646
346 762
346 763
347 475
347 476
348 527
348 528
349 833
349 834
349 879
349 880
349 970
349 971
350 526
350 527
351 956
351 957
352 570
352 571
352 786
352 787
353 742
353 743
353 842
353 876
353 877
353 968
353 969
354 746
354 747
355 545
355 546
356 436
356 437
357 654
357 655
358 381
358 382
358 453
358 454
359 632
359 633
360 533
360 534
361 731
361 732
361 952
361 953
362 385
362 386
362 494
362 495
362 572
362 573
362 697
362 698
362 921
362 922
363 801
363 802
364 647
364 648
365 449
365 450
366 568
366 569
367 543
367 544
368 693
368 694
368 913
368 914
369 377
369 378
369 605
369 606
370 408
370 409
370 709
370 710
371 491
371 492
372 973
372 974
373 531
373 532
374 375
375 376
376 377
377 378
378 379
379 380
380 381
381 382
382 383
383 384
384 385
385 386
386 387
387 388
388 389
389 390
390 391
391 392
392 393
393 394
394 395
395 396
396 397
397 398
398 399
399 400
400 401
401 402
402 403
403 404
404 405
405 406
406 407
407 408
408 409
409 410
410 411
411 412
412 413
414 415
415 416
416 417
417 418
418 419
419 420
420 421
421 422
422 423
423 424
424 425
425 426
426 427
427 428
428 429
429 430
430 431
431 432
432 433
433 434
434 435
435 436
436 437
437 438
438 439
439 440
440 441
441 442
442 443
443 444
444 445
445 446
446 447
448 449
449 450
450 451
451 452
452 453
453 454
454 455
455 456
456 457
457 458
458 459
459 460
460 461
461 462
462 463
463 464
464 465
465 466
466 467
467 468
468 469
469 470
470 471
471 472
472 473
473 474
474 475
475 476
476 477
477 478
478 479
479 480
480 481
481 482
482 483
483 484
484 485
485 486
486 487
487 488
488 489
489 490
490 491
491 492
492 493
493 494
494 495
495 496
496 497
497 498
498 499
499 500
500 501
501 502
502 503
503 504
504 505
505 506
506 507
507 508
508 509
509 510
510 511
511 512
512 513
513 514
514 515
515 516
516 517
517 518
519 520
520 521
521 522
522 523
523 524
524 525
526 527
527 528
528 529
529 530
530 531
531 532
532 533
533 534
534 535
535 536
536 537
537 538
538 539
539 540
540 541
541 542
542 543
543 544
544 545
545 546
546 547
547 548
548 549
549 550
550 551
551 552
552 553
553 554
554 555
555 556
556 557
557 558
558 559
559 560
560 561
561 562
562 563
563 564
564 565
565 566
566 567
567 568
568 569
569 570
570 571
571 572
572 573
573 574
574 575
575 576
576 577
577 578
578 579
579 580
580 581
581 582
582 583
583 584
584 585
585 586
586 587
587 588
588 589
589 590
590 591
591 592
592 593
593 594
594 595
595 596
596 597
597 598
598 599
599 600
600 601
601 602
602 603
603 604
604 605
605 606
606 607
607 608
608 609
609 610
610 611
611 612
612 613
613 614
614 615
615 616
616 617
617 618
618 619
619 620
620 621
621 622
622 623
623 624
624 625
625 626
626 627
627 628
628 629
629 630
630 631
631 632
632 633
633 634
634 635
635 636
636 637
637 638
638 639
639 640
640 641
641 642
642 643
643 644
644 645
645 646
646 647
647 648
648 649
649 650
650 651
651 652
652 653
653 654
654 655
655 656
656 657
657 658
658 659
659 660
660 661
661 662
662 663
663 664
664 665
665 666
666 667
667 668
668 669
669 670
670 671
671 672
672 673
673 674
674 675
675 676
676 677
677 678
679 680
680 681
681 682
682 683
683 684
684 685
685 686
686 687
687 688
688 689
689 690
690 691
691 692
692 693
693 694
694 695
695 696
696 697
697 698
698 699
699 700
700 701
701 702
702 703
703 704
704 705
705 706
706 707
707 708
708 709
709 710
710 711
711 712
712 713
713 714
714 715
715 716
716 717
717 718
718 719
719 720
720 721
721 722
722 723
723 724
724 725
725 726
726 727
727 728
728 729
729 730
730 731
731 732
732 733
733 734
734 735
735 736
736 737
737 738
738 739
739 740
740 741
741 742
742 743
743 744
744 745
745 746
746 747
747 748
748 749
749 750
750 751
751 752
752 753
753 754
754 755
755 756
756 757
757 758
758 759
759 760
760 761
761 762
762 763
763 764
764 765
765 766
766 767
767 768
768 769
769 770
770 771
771 772
772 773
773 774
774 775
775 776
776 777
777 778
778 779
779 780
780 781
781 782
782 783
783 784
784 785
785 786
786 787
787 788
788 789
789 790
790 791
791 792
792 793
793 794
794 795
795 796
796 797
797 798
798 799
799 800
800 801
801 802
802 803
803 804
804 805
805 806
806 807
807 808
808 809
809 810
810 811
811 812
812 813
813 814
814 815
815 816
816 817
817 818
818 819
819 820
820 821
821 822
822 823
823 824
824 825
825 826
826 827
827 828
828 829
829 830
830 831
831 832
832 833
833 834
834 835
835 836
836 837
837 838
838 839
839 840
841 842
843 844
844 845
845 846
846 847
847 848
848 849
849 850
850 851
851 852
852 853
853 854
854 855
855 856
856 857
857 858
858 859
859 860
860 861
861 862
862 863
863 864
864 865
865 866
866 867
867 868
868 869
869 870
870 871
871 872
872 873
873 874
874 875
875 876
876 877
877 878
878 879
879 880
880 881
881 882
882 883
883 884
884 885
885 886
886 887
887 888
888 889
889 890
890 891
891 892
892 893
893 894
894 895
895 896
897 898
898 899
899 900
900 901
901 902
902 903
903 904
904 905
905 906
906 907
907 908
908 909
909 910
910 911
911 912
912 913
913 914
914 915
915 916
916 917
917 918
918 919
919 920
920 921
921 922
922 923
923 924
924 925
925 926
926 927
927 928
928 929
929 930
930 931
931 932
932 933
933 934
934 935
935 936
936 937
937 938
938 939
939 940
940 941
941 942
942 943
943 944
944 945
945 946
946 947
947 948
948 949
949 950
950 951
951 952
952 953
953 954
954 955
955 956
956 957
957 958
958 959
959 960
960 961
961 962
962 963
963 964
964 965
965 966
966 967
967 968
968 969
969 970
970 971
971 972
972 973
973 974
974 975
975 976
976 977
977 978
978 979
979 980
980 981
981 982
982 983
984 985
985 986
986 987
987 988
